c FILE:  par16-4-c.cnf
c
c SOURCE: James Crawford (jc@research.att.com)
c
c DESCRIPTION: Instance arises from the problem of learning the parity
c              function.  
c
c     parxx-y denotes a parity problem on xx bits.  y is simply the
c     intance number.
c
c     parxx-y-c denotes an instance identical to parxx-y except that
c     the instances have been simplified (to create an equivalent
c     problem). 
c
c NOTE: Satisfiable (checked for 8 and 16 size instances. All
c       instances are satisfiable by construction)
c
c NOTE: Number of clauses corrected August 3, 1993
c
c Converted from tableau format Tue Aug  3 09:49:50 EDT 1993
p cnf 324 1292
 -2 1
 0
 -3 -2
 0
 -5 4 3
 0
 -6 -5 3
 0
 5 -3
 0
 6 -3
 0
 -3 -2 -1
 0
 3 2 -1
 0
 -3 2 1
 0
 3 -2 1
 0
 -6 -5 -4
 0
 6 5 -4
 0
 -6 5 4
 0
 6 -5 4
 0
 -7 2
 0
 -8 -7
 0
 -9 5 8
 0
 -10 -9 8
 0
 9 -8
 0
 10 -8
 0
 -8 -7 -2
 0
 8 7 -2
 0
 -8 7 2
 0
 8 -7 2
 0
 -10 -9 -5
 0
 10 9 -5
 0
 -10 9 5
 0
 10 -9 5
 0
 -11 7
 0
 -12 -11
 0
 -13 9 12
 0
 -14 -13 12
 0
 13 -12
 0
 14 -12
 0
 -12 -11 -7
 0
 12 11 -7
 0
 -12 11 7
 0
 12 -11 7
 0
 -14 -13 -9
 0
 14 13 -9
 0
 -14 13 9
 0
 14 -13 9
 0
 -15 11
 0
 -16 -15
 0
 -17 13 16
 0
 -18 -17 16
 0
 17 -16
 0
 18 -16
 0
 -16 -15 -11
 0
 16 15 -11
 0
 -16 15 11
 0
 16 -15 11
 0
 -18 -17 -13
 0
 18 17 -13
 0
 -18 17 13
 0
 18 -17 13
 0
 -19 15
 0
 -20 -19
 0
 -21 17 20
 0
 -22 -21 20
 0
 21 -20
 0
 22 -20
 0
 -20 -19 -15
 0
 20 19 -15
 0
 -20 19 15
 0
 20 -19 15
 0
 -22 -21 -17
 0
 22 21 -17
 0
 -22 21 17
 0
 22 -21 17
 0
 -23 19
 0
 -24 -23
 0
 -25 21 24
 0
 -26 -25 24
 0
 25 -24
 0
 26 -24
 0
 -24 -23 -19
 0
 24 23 -19
 0
 -24 23 19
 0
 24 -23 19
 0
 -26 -25 -21
 0
 26 25 -21
 0
 -26 25 21
 0
 26 -25 21
 0
 -27 23
 0
 -28 -27
 0
 -29 25 28
 0
 -30 -29 28
 0
 29 -28
 0
 30 -28
 0
 -28 -27 -23
 0
 28 27 -23
 0
 -28 27 23
 0
 28 -27 23
 0
 -30 -29 -25
 0
 30 29 -25
 0
 -30 29 25
 0
 30 -29 25
 0
 -31 27
 0
 -32 -31
 0
 -33 29 32
 0
 -34 -33 32
 0
 33 -32
 0
 34 -32
 0
 -32 -31 -27
 0
 32 31 -27
 0
 -32 31 27
 0
 32 -31 27
 0
 -34 -33 -29
 0
 34 33 -29
 0
 -34 33 29
 0
 34 -33 29
 0
 -35 31
 0
 -36 -35
 0
 -37 33 36
 0
 -38 -37 36
 0
 37 -36
 0
 38 -36
 0
 -36 -35 -31
 0
 36 35 -31
 0
 -36 35 31
 0
 36 -35 31
 0
 -38 -37 -33
 0
 38 37 -33
 0
 -38 37 33
 0
 38 -37 33
 0
 -39 35
 0
 -40 -39
 0
 -41 37 40
 0
 -42 -41 40
 0
 41 -40
 0
 42 -40
 0
 -40 -39 -35
 0
 40 39 -35
 0
 -40 39 35
 0
 40 -39 35
 0
 -42 -41 -37
 0
 42 41 -37
 0
 -42 41 37
 0
 42 -41 37
 0
 -43 39
 0
 -44 -43
 0
 -45 41 44
 0
 -46 -45 44
 0
 45 -44
 0
 46 -44
 0
 -44 -43 -39
 0
 44 43 -39
 0
 -44 43 39
 0
 44 -43 39
 0
 -46 -45 -41
 0
 46 45 -41
 0
 -46 45 41
 0
 46 -45 41
 0
 -47 43
 0
 -48 -47
 0
 -49 45 48
 0
 -50 -49 48
 0
 49 -48
 0
 50 -48
 0
 -48 -47 -43
 0
 48 47 -43
 0
 -48 47 43
 0
 48 -47 43
 0
 -50 -49 -45
 0
 50 49 -45
 0
 -50 49 45
 0
 50 -49 45
 0
 -51 47
 0
 -52 -51
 0
 -53 49 52
 0
 -54 -53 52
 0
 53 -52
 0
 54 -52
 0
 -52 -51 -47
 0
 52 51 -47
 0
 -52 51 47
 0
 52 -51 47
 0
 -54 -53 -49
 0
 54 53 -49
 0
 -54 53 49
 0
 54 -53 49
 0
 -55 51
 0
 -56 -55
 0
 -57 53 56
 0
 -58 -57 56
 0
 57 -56
 0
 58 -56
 0
 -56 -55 -51
 0
 56 55 -51
 0
 -56 55 51
 0
 56 -55 51
 0
 -58 -57 -53
 0
 58 57 -53
 0
 -58 57 53
 0
 58 -57 53
 0
 -59 55
 0
 -60 -59
 0
 -61 57 60
 0
 -62 -61 60
 0
 61 -60
 0
 62 -60
 0
 -60 -59 -55
 0
 60 59 -55
 0
 -60 59 55
 0
 60 -59 55
 0
 -62 -61 -57
 0
 62 61 -57
 0
 -62 61 57
 0
 62 -61 57
 0
 -63 59
 0
 -64 -63
 0
 -65 61 64
 0
 -66 -65 64
 0
 65 -64
 0
 66 -64
 0
 -64 -63 -59
 0
 64 63 -59
 0
 -64 63 59
 0
 64 -63 59
 0
 -66 -65 -61
 0
 66 65 -61
 0
 -66 65 61
 0
 66 -65 61
 0
 -67 63
 0
 -68 -67
 0
 -69 65 68
 0
 -70 -69 68
 0
 69 -68
 0
 70 -68
 0
 -68 -67 -63
 0
 68 67 -63
 0
 -68 67 63
 0
 68 -67 63
 0
 -70 -69 -65
 0
 70 69 -65
 0
 -70 69 65
 0
 70 -69 65
 0
 -71 67
 0
 -72 -71
 0
 -73 69 72
 0
 -74 -73 72
 0
 73 -72
 0
 74 -72
 0
 -72 -71 -67
 0
 72 71 -67
 0
 -72 71 67
 0
 72 -71 67
 0
 -74 -73 -69
 0
 74 73 -69
 0
 -74 73 69
 0
 74 -73 69
 0
 -75 71
 0
 -76 -75
 0
 -77 73 76
 0
 -78 -77 76
 0
 77 -76
 0
 78 -76
 0
 -76 -75 -71
 0
 76 75 -71
 0
 -76 75 71
 0
 76 -75 71
 0
 -78 -77 -73
 0
 78 77 -73
 0
 -78 77 73
 0
 78 -77 73
 0
 -79 75
 0
 -80 -79
 0
 -81 77 80
 0
 -82 -81 80
 0
 81 -80
 0
 82 -80
 0
 -80 -79 -75
 0
 80 79 -75
 0
 -80 79 75
 0
 80 -79 75
 0
 -82 -81 -77
 0
 82 81 -77
 0
 -82 81 77
 0
 82 -81 77
 0
 -83 79
 0
 -84 -83
 0
 -85 81 84
 0
 -86 -85 84
 0
 85 -84
 0
 86 -84
 0
 -84 -83 -79
 0
 84 83 -79
 0
 -84 83 79
 0
 84 -83 79
 0
 -86 -85 -81
 0
 86 85 -81
 0
 -86 85 81
 0
 86 -85 81
 0
 -87 83
 0
 -88 -87
 0
 -89 85 88
 0
 -90 -89 88
 0
 89 -88
 0
 90 -88
 0
 -88 -87 -83
 0
 88 87 -83
 0
 -88 87 83
 0
 88 -87 83
 0
 -90 -89 -85
 0
 90 89 -85
 0
 -90 89 85
 0
 90 -89 85
 0
 -91 87
 0
 -92 -91
 0
 -93 89 92
 0
 -94 -93 92
 0
 93 -92
 0
 94 -92
 0
 -92 -91 -87
 0
 92 91 -87
 0
 -92 91 87
 0
 92 -91 87
 0
 -94 -93 -89
 0
 94 93 -89
 0
 -94 93 89
 0
 94 -93 89
 0
 -95 91
 0
 -96 -95
 0
 -97 93 96
 0
 -98 -97 96
 0
 97 -96
 0
 98 -96
 0
 -96 -95 -91
 0
 96 95 -91
 0
 -96 95 91
 0
 96 -95 91
 0
 -98 -97 -93
 0
 98 97 -93
 0
 -98 97 93
 0
 98 -97 93
 0
 -99 95
 0
 -100 -99
 0
 -101 97 100
 0
 -102 -101 100
 0
 101 -100
 0
 102 -100
 0
 -100 -99 -95
 0
 100 99 -95
 0
 -100 99 95
 0
 100 -99 95
 0
 -102 -101 -97
 0
 102 101 -97
 0
 -102 101 97
 0
 102 -101 97
 0
 -103 99
 0
 -104 -103
 0
 -105 101 104
 0
 -106 -105 104
 0
 105 -104
 0
 106 -104
 0
 -104 -103 -99
 0
 104 103 -99
 0
 -104 103 99
 0
 104 -103 99
 0
 -106 -105 -101
 0
 106 105 -101
 0
 -106 105 101
 0
 106 -105 101
 0
 -107 103
 0
 -108 -107
 0
 -109 105 108
 0
 -110 -109 108
 0
 109 -108
 0
 110 -108
 0
 -108 -107 -103
 0
 108 107 -103
 0
 -108 107 103
 0
 108 -107 103
 0
 -110 -109 -105
 0
 110 109 -105
 0
 -110 109 105
 0
 110 -109 105
 0
 -111 107
 0
 -112 -111
 0
 -113 109 112
 0
 -114 -113 112
 0
 113 -112
 0
 114 -112
 0
 -112 -111 -107
 0
 112 111 -107
 0
 -112 111 107
 0
 112 -111 107
 0
 -114 -113 -109
 0
 114 113 -109
 0
 -114 113 109
 0
 114 -113 109
 0
 -115 111
 0
 -116 -115
 0
 -117 113 116
 0
 -118 -117 116
 0
 117 -116
 0
 118 -116
 0
 -116 -115 -111
 0
 116 115 -111
 0
 -116 115 111
 0
 116 -115 111
 0
 -118 -117 -113
 0
 118 117 -113
 0
 -118 117 113
 0
 118 -117 113
 0
 115 -119
 0
 -120 -119
 0
 -121 117 120
 0
 -122 -121 120
 0
 121 -120
 0
 122 -120
 0
 -120 -115 -119
 0
 120 -115 119
 0
 -120 115 119
 0
 120 115 -119
 0
 -122 -121 -117
 0
 122 121 -117
 0
 -122 121 117
 0
 122 -121 117
 0
 121 119 -123
 0
 -124 119 -123
 0
 -119 123
 0
 124 -119
 0
 -124 -121 -123
 0
 124 -121 123
 0
 -124 121 123
 0
 124 121 -123
 0
 -126 -125 -6
 0
 126 125 -6
 0
 -126 125 6
 0
 126 -125 6
 0
 -128 -127 -125
 0
 128 127 -125
 0
 -128 127 125
 0
 128 -127 125
 0
 -130 -129 -127
 0
 130 129 -127
 0
 -130 129 127
 0
 130 -129 127
 0
 -132 -131 -129
 0
 132 131 -129
 0
 -132 131 129
 0
 132 -131 129
 0
 -134 -133 -131
 0
 134 133 -131
 0
 -134 133 131
 0
 134 -133 131
 0
 -136 -135 -133
 0
 136 135 -133
 0
 -136 135 133
 0
 136 -135 133
 0
 -138 -137 -135
 0
 138 137 -135
 0
 -138 137 135
 0
 138 -137 135
 0
 -140 -137 139
 0
 140 -137 -139
 0
 -140 137 -139
 0
 140 137 139
 0
 -142 -141 -10
 0
 142 141 -10
 0
 -142 141 10
 0
 142 -141 10
 0
 -126 -143 -141
 0
 126 143 -141
 0
 -126 143 141
 0
 126 -143 141
 0
 -128 -144 -143
 0
 128 144 -143
 0
 -128 144 143
 0
 128 -144 143
 0
 -146 -145 -144
 0
 146 145 -144
 0
 -146 145 144
 0
 146 -145 144
 0
 -132 -147 -145
 0
 132 147 -145
 0
 -132 147 145
 0
 132 -147 145
 0
 -149 -148 -147
 0
 149 148 -147
 0
 -149 148 147
 0
 149 -148 147
 0
 -136 -150 -148
 0
 136 150 -148
 0
 -136 150 148
 0
 136 -150 148
 0
 -138 -151 -150
 0
 138 151 -150
 0
 -138 151 150
 0
 138 -151 150
 0
 -153 -151 152
 0
 153 -151 -152
 0
 -153 151 -152
 0
 153 151 152
 0
 -155 -154 -14
 0
 155 154 -14
 0
 -155 154 14
 0
 155 -154 14
 0
 -126 -156 -154
 0
 126 156 -154
 0
 -126 156 154
 0
 126 -156 154
 0
 -128 -157 -156
 0
 128 157 -156
 0
 -128 157 156
 0
 128 -157 156
 0
 -130 -158 -157
 0
 130 158 -157
 0
 -130 158 157
 0
 130 -158 157
 0
 -149 -159 -158
 0
 149 159 -158
 0
 -149 159 158
 0
 149 -159 158
 0
 -136 -160 -159
 0
 136 160 -159
 0
 -136 160 159
 0
 136 -160 159
 0
 -153 -161 -160
 0
 153 161 -160
 0
 -153 161 160
 0
 153 -161 160
 0
 -152 -161 -140
 0
 152 -161 140
 0
 -152 161 140
 0
 152 161 -140
 0
 -142 -162 -18
 0
 142 162 -18
 0
 -142 162 18
 0
 142 -162 18
 0
 -146 -163 -162
 0
 146 163 -162
 0
 -146 163 162
 0
 146 -163 162
 0
 -130 -164 -163
 0
 130 164 -163
 0
 -130 164 163
 0
 130 -164 163
 0
 -132 -165 -164
 0
 132 165 -164
 0
 -132 165 164
 0
 132 -165 164
 0
 -149 -166 -165
 0
 149 166 -165
 0
 -149 166 165
 0
 149 -166 165
 0
 -168 -167 -166
 0
 168 167 -166
 0
 -168 167 166
 0
 168 -167 166
 0
 -138 -167 153
 0
 138 -167 -153
 0
 -138 167 -153
 0
 138 167 153
 0
 -142 -169 -22
 0
 142 169 -22
 0
 -142 169 22
 0
 142 -169 22
 0
 -149 -170 -169
 0
 149 170 -169
 0
 -149 170 169
 0
 149 -170 169
 0
 -136 -171 -170
 0
 136 171 -170
 0
 -136 171 170
 0
 136 -171 170
 0
 -168 -172 -171
 0
 168 172 -171
 0
 -168 172 171
 0
 168 -172 171
 0
 -153 -152 -172
 0
 153 152 -172
 0
 -153 152 172
 0
 153 -152 172
 0
 -142 -173 -26
 0
 142 173 -26
 0
 -142 173 26
 0
 142 -173 26
 0
 -155 -174 -173
 0
 155 174 -173
 0
 -155 174 173
 0
 155 -174 173
 0
 -126 -175 -174
 0
 126 175 -174
 0
 -126 175 174
 0
 126 -175 174
 0
 -128 -176 -175
 0
 128 176 -175
 0
 -128 176 175
 0
 128 -176 175
 0
 -132 -177 -176
 0
 132 177 -176
 0
 -132 177 176
 0
 132 -177 176
 0
 -134 -178 -177
 0
 134 178 -177
 0
 -134 178 177
 0
 134 -178 177
 0
 -168 -179 -178
 0
 168 179 -178
 0
 -168 179 178
 0
 168 -179 178
 0
 -138 -179 139
 0
 138 -179 -139
 0
 -138 179 -139
 0
 138 179 139
 0
 -142 -180 -30
 0
 142 180 -30
 0
 -142 180 30
 0
 142 -180 30
 0
 -155 -181 -180
 0
 155 181 -180
 0
 -155 181 180
 0
 155 -181 180
 0
 -126 -182 -181
 0
 126 182 -181
 0
 -126 182 181
 0
 126 -182 181
 0
 -132 -183 -182
 0
 132 183 -182
 0
 -132 183 182
 0
 132 -183 182
 0
 -149 -184 -183
 0
 149 184 -183
 0
 -149 184 183
 0
 149 -184 183
 0
 -134 -185 -184
 0
 134 185 -184
 0
 -134 185 184
 0
 134 -185 184
 0
 -136 -186 -185
 0
 136 186 -185
 0
 -136 186 185
 0
 136 -186 185
 0
 -168 -187 -186
 0
 168 187 -186
 0
 -168 187 186
 0
 168 -187 186
 0
 -153 -139 -187
 0
 153 139 -187
 0
 -153 139 187
 0
 153 -139 187
 0
 -126 -188 -34
 0
 126 188 -34
 0
 -126 188 34
 0
 126 -188 34
 0
 -146 -189 -188
 0
 146 189 -188
 0
 -146 189 188
 0
 146 -189 188
 0
 -130 -190 -189
 0
 130 190 -189
 0
 -130 190 189
 0
 130 -190 189
 0
 -149 -191 -190
 0
 149 191 -190
 0
 -149 191 190
 0
 149 -191 190
 0
 -134 -192 -191
 0
 134 192 -191
 0
 -134 192 191
 0
 134 -192 191
 0
 -168 -193 -192
 0
 168 193 -192
 0
 -168 193 192
 0
 168 -193 192
 0
 -153 -194 -193
 0
 153 194 -193
 0
 -153 194 193
 0
 153 -194 193
 0
 -152 -194 -139
 0
 152 -194 139
 0
 -152 194 139
 0
 152 194 -139
 0
 -142 -195 -38
 0
 142 195 -38
 0
 -142 195 38
 0
 142 -195 38
 0
 -126 -196 -195
 0
 126 196 -195
 0
 -126 196 195
 0
 126 -196 195
 0
 -128 -197 -196
 0
 128 197 -196
 0
 -128 197 196
 0
 128 -197 196
 0
 -146 -198 -197
 0
 146 198 -197
 0
 -146 198 197
 0
 146 -198 197
 0
 -130 -199 -198
 0
 130 199 -198
 0
 -130 199 198
 0
 130 -199 198
 0
 -134 -200 -199
 0
 134 200 -199
 0
 -134 200 199
 0
 134 -200 199
 0
 -153 -200 152
 0
 153 -200 -152
 0
 -153 200 -152
 0
 153 200 152
 0
 -142 -201 -42
 0
 142 201 -42
 0
 -142 201 42
 0
 142 -201 42
 0
 -155 -202 -201
 0
 155 202 -201
 0
 -155 202 201
 0
 155 -202 201
 0
 -128 -203 -202
 0
 128 203 -202
 0
 -128 203 202
 0
 128 -203 202
 0
 -146 -204 -203
 0
 146 204 -203
 0
 -146 204 203
 0
 146 -204 203
 0
 -130 -205 -204
 0
 130 205 -204
 0
 -130 205 204
 0
 130 -205 204
 0
 -132 -206 -205
 0
 132 206 -205
 0
 -132 206 205
 0
 132 -206 205
 0
 -136 -207 -206
 0
 136 207 -206
 0
 -136 207 206
 0
 136 -207 206
 0
 -138 -208 -207
 0
 138 208 -207
 0
 -138 208 207
 0
 138 -208 207
 0
 -152 -208 140
 0
 152 -208 -140
 0
 -152 208 -140
 0
 152 208 140
 0
 -142 -209 -46
 0
 142 209 -46
 0
 -142 209 46
 0
 142 -209 46
 0
 -126 -210 -209
 0
 126 210 -209
 0
 -126 210 209
 0
 126 -210 209
 0
 -128 -211 -210
 0
 128 211 -210
 0
 -128 211 210
 0
 128 -211 210
 0
 -134 -211 136
 0
 134 -211 -136
 0
 -134 211 -136
 0
 134 211 136
 0
 -155 -212 -50
 0
 155 212 -50
 0
 -155 212 50
 0
 155 -212 50
 0
 -126 -213 -212
 0
 126 213 -212
 0
 -126 213 212
 0
 126 -213 212
 0
 -130 -214 -213
 0
 130 214 -213
 0
 -130 214 213
 0
 130 -214 213
 0
 -134 -214 138
 0
 134 -214 -138
 0
 -134 214 -138
 0
 134 214 138
 0
 -128 -215 -54
 0
 128 215 -54
 0
 -128 215 54
 0
 128 -215 54
 0
 -146 -216 -215
 0
 146 216 -215
 0
 -146 216 215
 0
 146 -216 215
 0
 -130 -217 -216
 0
 130 217 -216
 0
 -130 217 216
 0
 130 -217 216
 0
 -132 -218 -217
 0
 132 218 -217
 0
 -132 218 217
 0
 132 -218 217
 0
 -168 -219 -218
 0
 168 219 -218
 0
 -168 219 218
 0
 168 -219 218
 0
 -138 -220 -219
 0
 138 220 -219
 0
 -138 220 219
 0
 138 -220 219
 0
 -153 -221 -220
 0
 153 221 -220
 0
 -153 221 220
 0
 153 -221 220
 0
 -152 -221 -139
 0
 152 -221 139
 0
 -152 221 139
 0
 152 221 -139
 0
 -142 -222 -58
 0
 142 222 -58
 0
 -142 222 58
 0
 142 -222 58
 0
 -155 -223 -222
 0
 155 223 -222
 0
 -155 223 222
 0
 155 -223 222
 0
 -128 -224 -223
 0
 128 224 -223
 0
 -128 224 223
 0
 128 -224 223
 0
 -146 -225 -224
 0
 146 225 -224
 0
 -146 225 224
 0
 146 -225 224
 0
 -132 -226 -225
 0
 132 226 -225
 0
 -132 226 225
 0
 132 -226 225
 0
 -149 -227 -226
 0
 149 227 -226
 0
 -149 227 226
 0
 149 -227 226
 0
 -138 -228 -227
 0
 138 228 -227
 0
 -138 228 227
 0
 138 -228 227
 0
 -153 -228 152
 0
 153 -228 -152
 0
 -153 228 -152
 0
 153 228 152
 0
 -155 -229 -62
 0
 155 229 -62
 0
 -155 229 62
 0
 155 -229 62
 0
 -134 -230 -229
 0
 134 230 -229
 0
 -134 230 229
 0
 134 -230 229
 0
 -136 -231 -230
 0
 136 231 -230
 0
 -136 231 230
 0
 136 -231 230
 0
 -168 -232 -231
 0
 168 232 -231
 0
 -168 232 231
 0
 168 -232 231
 0
 -138 -233 -232
 0
 138 233 -232
 0
 -138 233 232
 0
 138 -233 232
 0
 -153 -233 -140
 0
 153 -233 140
 0
 -153 233 140
 0
 153 233 -140
 0
 -128 -234 -66
 0
 128 234 -66
 0
 -128 234 66
 0
 128 -234 66
 0
 -130 -235 -234
 0
 130 235 -234
 0
 -130 235 234
 0
 130 -235 234
 0
 -168 -236 -235
 0
 168 236 -235
 0
 -168 236 235
 0
 168 -236 235
 0
 -138 -237 -236
 0
 138 237 -236
 0
 -138 237 236
 0
 138 -237 236
 0
 -153 -238 -237
 0
 153 238 -237
 0
 -153 238 237
 0
 153 -238 237
 0
 -152 -238 -140
 0
 152 -238 140
 0
 -152 238 140
 0
 152 238 -140
 0
 -155 -239 -70
 0
 155 239 -70
 0
 -155 239 70
 0
 155 -239 70
 0
 -146 -240 -239
 0
 146 240 -239
 0
 -146 240 239
 0
 146 -240 239
 0
 -132 -241 -240
 0
 132 241 -240
 0
 -132 241 240
 0
 132 -241 240
 0
 -138 -242 -241
 0
 138 242 -241
 0
 -138 242 241
 0
 138 -242 241
 0
 -140 -242 139
 0
 140 -242 -139
 0
 -140 242 -139
 0
 140 242 139
 0
 -155 -243 -74
 0
 155 243 -74
 0
 -155 243 74
 0
 155 -243 74
 0
 -132 -244 -243
 0
 132 244 -243
 0
 -132 244 243
 0
 132 -244 243
 0
 -134 -245 -244
 0
 134 245 -244
 0
 -134 245 244
 0
 134 -245 244
 0
 -153 -245 152
 0
 153 -245 -152
 0
 -153 245 -152
 0
 153 245 152
 0
 -126 -246 -78
 0
 126 246 -78
 0
 -126 246 78
 0
 126 -246 78
 0
 -146 -247 -246
 0
 146 247 -246
 0
 -146 247 246
 0
 146 -247 246
 0
 -132 -248 -247
 0
 132 248 -247
 0
 -132 248 247
 0
 132 -248 247
 0
 -136 -249 -248
 0
 136 249 -248
 0
 -136 249 248
 0
 136 -249 248
 0
 -152 -250 -249
 0
 152 250 -249
 0
 -152 250 249
 0
 152 -250 249
 0
 -140 -250 -139
 0
 140 -250 139
 0
 -140 250 139
 0
 140 250 -139
 0
 -126 -251 -82
 0
 126 251 -82
 0
 -126 251 82
 0
 126 -251 82
 0
 -146 -252 -251
 0
 146 252 -251
 0
 -146 252 251
 0
 146 -252 251
 0
 -136 -253 -252
 0
 136 253 -252
 0
 -136 253 252
 0
 136 -253 252
 0
 -138 -253 140
 0
 138 -253 -140
 0
 -138 253 -140
 0
 138 253 140
 0
 -126 -254 -86
 0
 126 254 -86
 0
 -126 254 86
 0
 126 -254 86
 0
 -132 -255 -254
 0
 132 255 -254
 0
 -132 255 254
 0
 132 -255 254
 0
 -134 -256 -255
 0
 134 256 -255
 0
 -134 256 255
 0
 134 -256 255
 0
 -136 -257 -256
 0
 136 257 -256
 0
 -136 257 256
 0
 136 -257 256
 0
 -152 -140 -257
 0
 152 140 -257
 0
 -152 140 257
 0
 152 -140 257
 0
 -155 -258 -90
 0
 155 258 -90
 0
 -155 258 90
 0
 155 -258 90
 0
 -126 -259 -258
 0
 126 259 -258
 0
 -126 259 258
 0
 126 -259 258
 0
 -128 -260 -259
 0
 128 260 -259
 0
 -128 260 259
 0
 128 -260 259
 0
 -146 -261 -260
 0
 146 261 -260
 0
 -146 261 260
 0
 146 -261 260
 0
 -130 -262 -261
 0
 130 262 -261
 0
 -130 262 261
 0
 130 -262 261
 0
 -134 -263 -262
 0
 134 263 -262
 0
 -134 263 262
 0
 134 -263 262
 0
 -136 -264 -263
 0
 136 264 -263
 0
 -136 264 263
 0
 136 -264 263
 0
 -168 -265 -264
 0
 168 265 -264
 0
 -168 265 264
 0
 168 -265 264
 0
 -138 -266 -265
 0
 138 266 -265
 0
 -138 266 265
 0
 138 -266 265
 0
 -153 -267 -266
 0
 153 267 -266
 0
 -153 267 266
 0
 153 -267 266
 0
 -152 -267 -140
 0
 152 -267 140
 0
 -152 267 140
 0
 152 267 -140
 0
 -155 -268 -94
 0
 155 268 -94
 0
 -155 268 94
 0
 155 -268 94
 0
 -126 -269 -268
 0
 126 269 -268
 0
 -126 269 268
 0
 126 -269 268
 0
 -152 -270 -269
 0
 152 270 -269
 0
 -152 270 269
 0
 152 -270 269
 0
 -140 -270 -139
 0
 140 -270 139
 0
 -140 270 139
 0
 140 270 -139
 0
 -142 -271 -98
 0
 142 271 -98
 0
 -142 271 98
 0
 142 -271 98
 0
 -128 -272 -271
 0
 128 272 -271
 0
 -128 272 271
 0
 128 -272 271
 0
 -146 -273 -272
 0
 146 273 -272
 0
 -146 273 272
 0
 146 -273 272
 0
 -130 -274 -273
 0
 130 274 -273
 0
 -130 274 273
 0
 130 -274 273
 0
 -132 -275 -274
 0
 132 275 -274
 0
 -132 275 274
 0
 132 -275 274
 0
 -149 -276 -275
 0
 149 276 -275
 0
 -149 276 275
 0
 149 -276 275
 0
 -134 -277 -276
 0
 134 277 -276
 0
 -134 277 276
 0
 134 -277 276
 0
 -136 -278 -277
 0
 136 278 -277
 0
 -136 278 277
 0
 136 -278 277
 0
 -140 -139 -278
 0
 140 139 -278
 0
 -140 139 278
 0
 140 -139 278
 0
 -142 -279 -102
 0
 142 279 -102
 0
 -142 279 102
 0
 142 -279 102
 0
 -155 -280 -279
 0
 155 280 -279
 0
 -155 280 279
 0
 155 -280 279
 0
 -126 -281 -280
 0
 126 281 -280
 0
 -126 281 280
 0
 126 -281 280
 0
 -136 -282 -281
 0
 136 282 -281
 0
 -136 282 281
 0
 136 -282 281
 0
 -138 -283 -282
 0
 138 283 -282
 0
 -138 283 282
 0
 138 -283 282
 0
 -153 -283 139
 0
 153 -283 -139
 0
 -153 283 -139
 0
 153 283 139
 0
 -142 -284 -106
 0
 142 284 -106
 0
 -142 284 106
 0
 142 -284 106
 0
 -155 -285 -284
 0
 155 285 -284
 0
 -155 285 284
 0
 155 -285 284
 0
 -126 -286 -285
 0
 126 286 -285
 0
 -126 286 285
 0
 126 -286 285
 0
 -146 -287 -286
 0
 146 287 -286
 0
 -146 287 286
 0
 146 -287 286
 0
 -130 -288 -287
 0
 130 288 -287
 0
 -130 288 287
 0
 130 -288 287
 0
 -149 -289 -288
 0
 149 289 -288
 0
 -149 289 288
 0
 149 -289 288
 0
 -136 -290 -289
 0
 136 290 -289
 0
 -136 290 289
 0
 136 -290 289
 0
 -138 -291 -290
 0
 138 291 -290
 0
 -138 291 290
 0
 138 -291 290
 0
 -153 -292 -291
 0
 153 292 -291
 0
 -153 292 291
 0
 153 -292 291
 0
 -152 -292 139
 0
 152 -292 -139
 0
 -152 292 -139
 0
 152 292 139
 0
 -142 -293 -110
 0
 142 293 -110
 0
 -142 293 110
 0
 142 -293 110
 0
 -155 -294 -293
 0
 155 294 -293
 0
 -155 294 293
 0
 155 -294 293
 0
 -126 -295 -294
 0
 126 295 -294
 0
 -126 295 294
 0
 126 -295 294
 0
 -128 -296 -295
 0
 128 296 -295
 0
 -128 296 295
 0
 128 -296 295
 0
 -136 -297 -296
 0
 136 297 -296
 0
 -136 297 296
 0
 136 -297 296
 0
 -138 -298 -297
 0
 138 298 -297
 0
 -138 298 297
 0
 138 -298 297
 0
 -140 -298 139
 0
 140 -298 -139
 0
 -140 298 -139
 0
 140 298 139
 0
 -155 -299 -114
 0
 155 299 -114
 0
 -155 299 114
 0
 155 -299 114
 0
 -126 -300 -299
 0
 126 300 -299
 0
 -126 300 299
 0
 126 -300 299
 0
 -128 -301 -300
 0
 128 301 -300
 0
 -128 301 300
 0
 128 -301 300
 0
 -132 -302 -301
 0
 132 302 -301
 0
 -132 302 301
 0
 132 -302 301
 0
 -134 -303 -302
 0
 134 303 -302
 0
 -134 303 302
 0
 134 -303 302
 0
 -136 -304 -303
 0
 136 304 -303
 0
 -136 304 303
 0
 136 -304 303
 0
 -168 -305 -304
 0
 168 305 -304
 0
 -168 305 304
 0
 168 -305 304
 0
 -138 -306 -305
 0
 138 306 -305
 0
 -138 306 305
 0
 138 -306 305
 0
 -153 -306 -140
 0
 153 -306 140
 0
 -153 306 140
 0
 153 306 -140
 0
 -126 -307 -118
 0
 126 307 -118
 0
 -126 307 118
 0
 126 -307 118
 0
 -146 -308 -307
 0
 146 308 -307
 0
 -146 308 307
 0
 146 -308 307
 0
 -134 -309 -308
 0
 134 309 -308
 0
 -134 309 308
 0
 134 -309 308
 0
 -136 -310 -309
 0
 136 310 -309
 0
 -136 310 309
 0
 136 -310 309
 0
 -138 -311 -310
 0
 138 311 -310
 0
 -138 311 310
 0
 138 -311 310
 0
 -152 -312 -311
 0
 152 312 -311
 0
 -152 312 311
 0
 152 -312 311
 0
 -140 -312 139
 0
 140 -312 -139
 0
 -140 312 -139
 0
 140 312 139
 0
 -146 -313 -122
 0
 146 313 -122
 0
 -146 313 122
 0
 146 -313 122
 0
 -134 -314 -313
 0
 134 314 -313
 0
 -134 314 313
 0
 134 -314 313
 0
 -136 -315 -314
 0
 136 315 -314
 0
 -136 315 314
 0
 136 -315 314
 0
 -138 -316 -315
 0
 138 316 -315
 0
 -138 316 315
 0
 138 -316 315
 0
 -152 -316 139
 0
 152 -316 -139
 0
 -152 316 -139
 0
 152 316 139
 0
 -155 -317 -124
 0
 155 317 -124
 0
 -155 317 124
 0
 155 -317 124
 0
 -130 -318 -317
 0
 130 318 -317
 0
 -130 318 317
 0
 130 -318 317
 0
 -132 -319 -318
 0
 132 319 -318
 0
 -132 319 318
 0
 132 -319 318
 0
 -134 -320 -319
 0
 134 320 -319
 0
 -134 320 319
 0
 134 -320 319
 0
 -136 -321 -320
 0
 136 321 -320
 0
 -136 321 320
 0
 136 -321 320
 0
 -138 -153 -321
 0
 138 153 -321
 0
 -138 153 321
 0
 138 -153 321
 0
 -142 -322 -123
 0
 142 322 -123
 0
 -142 322 123
 0
 142 -322 123
 0
 -128 -323 -322
 0
 128 323 -322
 0
 -128 323 322
 0
 128 -323 322
 0
 -130 -324 -323
 0
 130 324 -323
 0
 -130 324 323
 0
 130 -324 323
 0
 -132 -324 -140
 0
 132 -324 140
 0
 -132 324 140
 0
 132 324 -140
 0

